50

99 4 316
96 13 420
96 24 361
96 47 397
95 40 318
95 10 377
94 41 355
90 44 345
90 17 398
88 33 472
87 14 321
84 10 307
82 33 246
78 18 242
77 31 446
77 35 468
77 3 391
75 24 230
75 38 465
70 1 395
70 12 456
69 8 303
68 19 330
56 10 356
54 5 220
53 19 207
53 7 286
50 12 192
50 15 290
49 24 457
48 11 320
47 7 415
45 23 220
38 3 196
36 2 357
35 9 264
34 2 450
28 2 222
25 9 322
21 11 227
19 1 226
18 7 423
16 6 467
13 3 403
13 6 388
7 2 371
7 2 168
6 1 77
3 1 224
3 1 242
